%mantenimiento escalado
n_jobs = 5;
n_machines = 3;
n_ops_for = [3, 3, 3, 2, 1];
dur = array2d(1..5, 1..3, [
  3, 2, 4,
  5, 3, 2,
  4, 5, 3,
  2, 3, 0,
  6, 0, 0
]);
machine_for = array2d(1..5, 1..3, [
  1, 2, 3,
  2, 3, 1,
  3, 1, 2,
  1, 2, 0,
  2, 0, 0
]);
maint_start = [6, 10, 14];
maint_end   = [8, 12, 16];

